p edge 19 48
e 1 2
e 1 3
e 1 4
e 1 6
e 1 8
e 1 9
e 1 10
e 1 11
e 1 13
e 2 4
e 2 5
e 2 6
e 2 7
e 3 6
e 3 8
e 3 9
e 3 10
e 3 11
e 3 13
e 3 16
e 3 19
e 4 6
e 4 7
e 5 6
e 5 10
e 5 11
e 5 12
e 7 14
e 8 9
e 8 10
e 8 13
e 8 16
e 8 19
e 9 10
e 9 11
e 9 13
e 9 16
e 9 19
e 10 11
e 10 12
e 10 16
e 11 12
e 11 16
e 13 19
e 15 17
e 15 18
e 16 19
e 17 18
